cantSalas = 1;
cantRamos = 6;
bloques = [2, 2, 1, 2, 1, 1];
capacidad = [69];
prioridad = [8, 2, 3, 3, 1, 6];
interes = [49, 57, 66, 64, 61, 48];
disponibilidad = array2d(1..cantRamos, 1..35, [
  false, true, false, true, true, true, false, true, false, false, false, true, true, false, false, true, false, true, true, true, false, false, true, false, false, false, true, true, false, true, false, true, true, true, false,
  true, true, true, true, true, false, true, true, true, true, true, true, true, true, false, true, true, true, false, true, false, true, true, true, false, false, false, true, true, false, false, true, true, false, true,
  true, true, true, false, false, false, false, true, true, true, true, true, true, false, false, false, false, true, true, true, true, true, true, false, true, true, true, true, false, false, false, true, false, true, false,
  true, true, true, true, false, false, true, true, true, false, true, true, false, false, true, true, false, true, true, true, true, false, true, true, true, true, true, true, true, false, true, true, true, false, true,
  true, false, false, true, false, false, true, false, true, true, false, true, true, false, false, false, true, true, true, true, true, true, true, true, true, false, true, true, false, false, false, true, false, true, false,
  false, false, true, true, false, true, false, true, true, true, true, false, true, false, true, true, true, true, true, false, true, true, true, true, false, false, true, false, true, false, false, true, true, false, true,
]);
